# Objective value = 2.4682199914492985e+03
I_0_0 1583
I_0_1 1.8180000772716310e+03
I_0_2 1.8959999221692128e+03
I_0_3 2.5309999221692128e+03
I_1_0 87
I_1_1 86.9999180108968
I_1_2 87
I_1_3 0
I_2_0 14
I_2_1 6.6038243850518554e-06
I_2_2 14
I_2_3 0
I_3_0 172
I_3_1 172
I_3_2 86.0000405663497
I_3_3 4.0566349726610421e-05
I_4_0 75
I_4_1 3.5377176219285966e-05
I_4_2 75
I_4_3 0
I_5_0 84
I_5_1 84
I_5_2 4.1999999999999929e+01
I_5_3 0
I_6_0 69
I_6_1 2.51840206216335e-13
I_6_2 69
I_6_3 0
I_7_0 158
I_7_1 1.5799996273647147e+02
I_7_2 7.9000037264437609e+01
I_7_3 3.7264437625899963e-05
I_8_0 86
I_8_1 86
I_8_2 4.2999999999999986e+01
I_8_3 0
I_9_0 77
I_9_1 0
I_9_2 77
I_9_3 0
I_10_0 126
I_10_1 1.2600000000000009e+02
I_10_2 6.2999999999999872e+01
I_10_3 0
q_1_0_0 86.9999180108968
q_1_0_1 87.0000819891032
q_1_0_2 0
q_1_1_0 0
q_1_1_1 0
q_1_1_2 0
q_2_0_0 6.6038243850518554e-06
q_2_0_1 2.7999986792351230e+01
q_2_0_2 0
q_2_1_0 0
q_2_1_1 6.6038243899699464e-06
q_2_1_2 0
q_3_0_0 86
q_3_0_1 0
q_3_0_2 4.5632931027633772e-14
q_3_1_0 0
q_3_1_1 4.0566349752031764e-05
q_3_1_2 0
q_4_0_0 3.5377176219285966e-05
q_4_0_1 0
q_4_0_2 0
q_4_1_0 0
q_4_1_1 1.4999996462236948e+02
q_4_1_2 0
q_5_0_0 42
q_5_0_1 0
q_5_0_2 0
q_5_1_0 0
q_5_1_1 0
q_5_1_2 0
q_6_0_0 2.51840206216335e-13
q_6_0_1 1.3799999999999974e+02
q_6_0_2 0
q_6_1_0 0
q_6_1_1 0
q_6_1_2 0
q_7_0_0 7.8999962736471474e+01
q_7_0_1 0
q_7_0_2 1.4210854715202004e-14
q_7_1_0 0
q_7_1_1 7.4528875237589058e-05
q_7_1_2 0
q_8_0_0 43
q_8_0_1 0
q_8_0_2 0
q_8_1_0 0
q_8_1_1 0
q_8_1_2 0
q_9_0_0 0
q_9_0_1 1.5399999999999997e+02
q_9_0_2 0
q_9_1_0 0
q_9_1_1 0
q_9_1_2 0
q_10_0_0 6.3000000000000085e+01
q_10_0_1 0
q_10_0_2 3.4594204535503756e-14
q_10_1_0 0
q_10_1_1 0
q_10_1_2 0
y_0_0_0 1
y_0_0_1 1
y_0_0_2 0
y_0_1_0 0
y_0_1_1 1
y_0_1_2 0
y_1_0_0 9.9999905759651508e-01
y_1_0_1 1
y_1_0_2 0
y_1_1_0 0
y_1_1_1 0
y_1_1_2 0
y_2_0_0 4.7170174178941823e-07
y_2_0_1 9.9999976422055814e-01
y_2_0_2 0
y_2_1_0 0
y_2_1_1 2.3567229964178381e-07
y_2_1_2 0
y_3_0_0 1
y_3_0_1 0
y_3_0_2 0
y_3_1_0 0
y_3_1_1 2.3582180088390561e-07
y_3_1_2 0
y_4_0_0 4.7169568292381291e-07
y_4_0_1 0
y_4_0_2 0
y_4_1_0 0
y_4_1_1 1
y_4_1_2 0
y_5_0_0 1
y_5_0_1 0
y_5_0_2 0
y_5_1_0 0
y_5_1_1 0
y_5_1_2 0
y_6_0_0 3.6498580611063041e-15
y_6_0_1 1
y_6_0_2 0
y_6_1_0 0
y_6_1_1 0
y_6_1_2 0
y_7_0_0 9.9999952830976557e-01
y_7_0_1 0
y_7_0_2 0
y_7_1_0 0
y_7_1_1 4.7167009644043709e-07
y_7_1_2 0
y_8_0_0 1
y_8_0_1 0
y_8_0_2 0
y_8_1_0 0
y_8_1_1 0
y_8_1_2 0
y_9_0_0 0
y_9_0_1 1
y_9_0_2 0
y_9_1_0 0
y_9_1_1 0
y_9_1_2 0
y_10_0_0 1.0000000000000013e+00
y_10_0_1 0
y_10_0_2 0
y_10_1_0 0
y_10_1_1 0
y_10_1_2 0
x_0_1_0_0 0
x_0_1_0_1 0
x_0_1_0_2 0
x_0_1_1_0 0
x_0_1_1_1 0
x_0_1_1_2 0
x_0_2_0_0 0
x_0_2_0_1 0
x_0_2_0_2 0
x_0_2_1_0 0
x_0_2_1_1 0
x_0_2_1_2 0
x_0_3_0_0 0
x_0_3_0_1 0
x_0_3_0_2 0
x_0_3_1_0 0
x_0_3_1_1 0
x_0_3_1_2 0
x_0_4_0_0 9.4173681904600984e-07
x_0_4_0_1 0
x_0_4_0_2 0
x_0_4_1_0 0
x_0_4_1_1 2
x_0_4_1_2 0
x_0_5_0_0 9.9999905661073551e-01
x_0_5_0_1 0
x_0_5_0_2 0
x_0_5_1_0 0
x_0_5_1_1 0
x_0_5_1_2 0
x_0_6_0_0 0
x_0_6_0_1 1
x_0_6_0_2 0
x_0_6_1_0 0
x_0_6_1_1 0
x_0_6_1_2 0
x_0_7_0_0 0
x_0_7_0_1 0
x_0_7_0_2 0
x_0_7_1_0 0
x_0_7_1_1 0
x_0_7_1_2 0
x_0_8_0_0 0
x_0_8_0_1 0
x_0_8_0_2 0
x_0_8_1_0 0
x_0_8_1_1 0
x_0_8_1_2 0
x_0_9_0_0 0
x_0_9_0_1 1
x_0_9_0_2 0
x_0_9_1_0 0
x_0_9_1_1 0
x_0_9_1_2 0
x_0_10_0_0 1
x_0_10_0_1 0
x_0_10_0_2 0
x_0_10_1_0 0
x_0_10_1_1 0
x_0_10_1_2 0
x_1_2_0_0 0
x_1_2_0_1 9.9999976419490655e-01
x_1_2_0_2 0
x_1_2_1_0 0
x_1_2_1_1 0
x_1_2_1_2 0
x_1_3_0_0 9.9999905659651533e-01
x_1_3_0_1 0
x_1_3_0_2 0
x_1_3_1_0 0
x_1_3_1_1 0
x_1_3_1_2 0
x_1_4_0_0 0
x_1_4_0_1 0
x_1_4_0_2 0
x_1_4_1_0 0
x_1_4_1_1 0
x_1_4_1_2 0
x_1_5_0_0 0
x_1_5_0_1 0
x_1_5_0_2 0
x_1_5_1_0 0
x_1_5_1_1 0
x_1_5_1_2 0
x_1_6_0_0 -4.7170174018653374e-07
x_1_6_0_1 1
x_1_6_0_2 0
x_1_6_1_0 0
x_1_6_1_1 0
x_1_6_1_2 0
x_1_7_0_0 0
x_1_7_0_1 0
x_1_7_0_2 0
x_1_7_1_0 0
x_1_7_1_1 0
x_1_7_1_2 0
x_1_8_0_0 0
x_1_8_0_1 0
x_1_8_0_2 0
x_1_8_1_0 0
x_1_8_1_1 0
x_1_8_1_2 0
x_1_9_0_0 0
x_1_9_0_1 2.3380509354588482e-07
x_1_9_0_2 0
x_1_9_1_0 0
x_1_9_1_1 0
x_1_9_1_2 0
x_1_10_0_0 0.999999528298255
x_1_10_0_1 0
x_1_10_0_2 0
x_1_10_1_0 0
x_1_10_1_1 0
x_1_10_1_2 0
x_2_3_0_0 9.4197491262904848e-07
x_2_3_0_1 0
x_2_3_0_2 0
x_2_3_1_0 0
x_2_3_1_1 0
x_2_3_1_2 0
x_2_4_0_0 0
x_2_4_0_1 0
x_2_4_0_2 0
x_2_4_1_0 0
x_2_4_1_1 0
x_2_4_1_2 0
x_2_5_0_0 0
x_2_5_0_1 0
x_2_5_0_2 0
x_2_5_1_0 0
x_2_5_1_1 0
x_2_5_1_2 0
x_2_6_0_0 0
x_2_6_0_1 0
x_2_6_0_2 0
x_2_6_1_0 0
x_2_6_1_1 0
x_2_6_1_2 0
x_2_7_0_0 0
x_2_7_0_1 0
x_2_7_0_2 0
x_2_7_1_0 0
x_2_7_1_1 4.6934459928356757e-07
x_2_7_1_2 0
x_2_8_0_0 0
x_2_8_0_1 0
x_2_8_0_2 0
x_2_8_1_0 0
x_2_8_1_1 0
x_2_8_1_2 0
x_2_9_0_0 0
x_2_9_0_1 9.9999976419598369e-01
x_2_9_0_2 0
x_2_9_1_0 0
x_2_9_1_1 0
x_2_9_1_2 0
x_2_10_0_0 0
x_2_10_0_1 0
x_2_10_0_2 0
x_2_10_1_0 0
x_2_10_1_1 0
x_2_10_1_2 0
x_3_4_0_0 0
x_3_4_0_1 0
x_3_4_0_2 0
x_3_4_1_0 0
x_3_4_1_1 0
x_3_4_1_2 0
x_3_5_0_0 0
x_3_5_0_1 0
x_3_5_0_2 0
x_3_5_1_0 0
x_3_5_1_1 0
x_3_5_1_2 0
x_3_6_0_0 4.7170174167839619e-07
x_3_6_0_1 0
x_3_6_0_2 0
x_3_6_1_0 0
x_3_6_1_1 0
x_3_6_1_2 0
x_3_7_0_0 9.9999952829825878e-01
x_3_7_0_1 0
x_3_7_0_2 0
x_3_7_1_0 0
x_3_7_1_1 4.7066226026397321e-07
x_3_7_1_2 0
x_3_8_0_0 0
x_3_8_0_1 0
x_3_8_0_2 0
x_3_8_1_0 0
x_3_8_1_1 0
x_3_8_1_2 0
x_3_9_0_0 1.3877787807814457e-16
x_3_9_0_1 0
x_3_9_0_2 0
x_3_9_1_0 0
x_3_9_1_1 0
x_3_9_1_2 0
x_3_10_0_0 0
x_3_10_0_1 0
x_3_10_0_2 0
x_3_10_1_0 0
x_3_10_1_1 0
x_3_10_1_2 0
x_4_5_0_0 0
x_4_5_0_1 0
x_4_5_0_2 0
x_4_5_1_0 0
x_4_5_1_1 0
x_4_5_1_2 0
x_4_6_0_0 0
x_4_6_0_1 0
x_4_6_0_2 0
x_4_6_1_0 0
x_4_6_1_1 0
x_4_6_1_2 0
x_4_7_0_0 0
x_4_7_0_1 0
x_4_7_0_2 0
x_4_7_1_0 0
x_4_7_1_1 0
x_4_7_1_2 0
x_4_8_0_0 0
x_4_8_0_1 0
x_4_8_0_2 0
x_4_8_1_0 0
x_4_8_1_1 0
x_4_8_1_2 0
x_4_9_0_0 0
x_4_9_0_1 0
x_4_9_0_2 0
x_4_9_1_0 0
x_4_9_1_1 0
x_4_9_1_2 0
x_4_10_0_0 0
x_4_10_0_1 0
x_4_10_0_2 0
x_4_10_1_0 0
x_4_10_1_1 0
x_4_10_1_2 0
x_5_6_0_0 0
x_5_6_0_1 0
x_5_6_0_2 0
x_5_6_1_0 0
x_5_6_1_1 0
x_5_6_1_2 0
x_5_7_0_0 0
x_5_7_0_1 0
x_5_7_0_2 0
x_5_7_1_0 0
x_5_7_1_1 0
x_5_7_1_2 0
x_5_8_0_0 1.0000004692017388e+00
x_5_8_0_1 0
x_5_8_0_2 0
x_5_8_1_0 0
x_5_8_1_1 0
x_5_8_1_2 0
x_5_9_0_0 0
x_5_9_0_1 0
x_5_9_0_2 0
x_5_9_1_0 0
x_5_9_1_1 0
x_5_9_1_2 0
x_5_10_0_0 4.7170174704910012e-07
x_5_10_0_1 0
x_5_10_0_2 0
x_5_10_1_0 0
x_5_10_1_1 0
x_5_10_1_2 0
x_6_7_0_0 0
x_6_7_0_1 0
x_6_7_0_2 0
x_6_7_1_0 0
x_6_7_1_1 0
x_6_7_1_2 0
x_6_8_0_0 3.3029129688642487e-15
x_6_8_0_1 0
x_6_8_0_2 0
x_6_8_1_0 0
x_6_8_1_1 0
x_6_8_1_2 0
x_6_9_0_0 0
x_6_9_0_1 0
x_6_9_0_2 0
x_6_9_1_0 0
x_6_9_1_1 0
x_6_9_1_2 0
x_6_10_0_0 0
x_6_10_0_1 0
x_6_10_0_2 0
x_6_10_1_0 0
x_6_10_1_1 0
x_6_10_1_2 0
x_7_8_0_0 9.9999952829825789e-01
x_7_8_0_1 0
x_7_8_0_2 0
x_7_8_1_0 0
x_7_8_1_1 0
x_7_8_1_2 0
x_7_9_0_0 0
x_7_9_0_1 0
x_7_9_0_2 0
x_7_9_1_0 0
x_7_9_1_1 0
x_7_9_1_2 0
x_7_10_0_0 0
x_7_10_0_1 0
x_7_10_0_2 0
x_7_10_1_0 0
x_7_10_1_1 0
x_7_10_1_2 0
x_8_9_0_0 0
x_8_9_0_1 0
x_8_9_0_2 0
x_8_9_1_0 0
x_8_9_1_1 0
x_8_9_1_2 0
x_8_10_0_0 0
x_8_10_0_1 0
x_8_10_0_2 0
x_8_10_1_0 0
x_8_10_1_1 0
x_8_10_1_2 0
x_9_10_0_0 0
x_9_10_0_1 0
x_9_10_0_2 0
x_9_10_1_0 0
x_9_10_1_1 0
x_9_10_1_2 0
